Solver command line: ['C:\\Program Files\\IBM\\ILOG\\CPLEX_Studio2211\\cplex\\bin\\x64_win64\\cplex.exe']


Welcome to IBM(R) ILOG(R) CPLEX(R) Interactive Optimizer 22.1.1.0
  with Simplex, Mixed Integer & Barrier Optimizers
5725-A06 5725-A29 5724-Y48 5724-Y49 5724-Y54 5724-Y55 5655-Y21
Copyright IBM Corp. 1988, 2022.  All Rights Reserved.

Type 'help' for a list of available commands.
Type 'help' followed by a command name for more
information on commands.

CPLEX> Logfile 'cplex.log' closed.
Logfile 'C:\Users\wangy\Documents\GitHub\re_optimization\result_site_specific\tmp2bldcts5.cplex.log' open.
CPLEX> Problem 'C:\Users\wangy\Documents\GitHub\re_optimization\result_site_specific\tmpizlyulbt.pyomo.lp' read.
Read time = 0.26 sec. (7.98 ticks)
CPLEX> Problem name         : C:\Users\wangy\Documents\GitHub\re_optimization\result_site_specific\tmpizlyulbt.pyomo.lp
Objective sense      : Minimize
Variables            :   56997  [Nneg: 30685,  Free: 4406,  Binary: 6,
                                 Other: 21900]
Objective nonzeros   :      14
Linear constraints   :   78893  [Less: 42355,  Greater: 5,  Equal: 36533]
  Nonzeros           :  198770
  RHS nonzeros       :    3719

Variables            : Min LB: 0.000000         Max UB: 1.000000       
Objective nonzeros   : Min   : 1.000000         Max   : 1.000000       
Linear constraints   :
  Nonzeros           : Min   : 0.001906378      Max   : 100000.0       
  RHS nonzeros       : Min   : 0.04800000       Max   : 100000.0       
CPLEX> Version identifier: 22.1.1.0 | 2022-11-27 | 9160aff4d
Tried aggregator 3 times.
MIP Presolve eliminated 45279 rows and 24836 columns.
Aggregator did 11874 substitutions.
Reduced MIP has 21740 rows, 20287 columns, and 66206 nonzeros.
Reduced MIP has 2 binaries, 0 generals, 0 SOSs, and 0 indicators.
Presolve time = 0.19 sec. (210.48 ticks)
Found incumbent of value 224726.104263 after 0.27 sec. (314.28 ticks)
Probing time = 0.01 sec. (1.13 ticks)
Tried aggregator 1 time.
Detecting symmetries...
Reduced MIP has 21740 rows, 20287 columns, and 66206 nonzeros.
Reduced MIP has 2 binaries, 0 generals, 0 SOSs, and 0 indicators.
Presolve time = 0.03 sec. (41.95 ticks)
Probing time = 0.02 sec. (1.07 ticks)
MIP emphasis: balance optimality and feasibility.
MIP search method: dynamic search.
Parallel mode: deterministic, using up to 16 threads.
Root relaxation solution time = 1.30 sec. (1144.06 ticks)

        Nodes                                         Cuts/
   Node  Left     Objective  IInf  Best Integer    Best Bound    ItCnt     Gap

*     0+    0                       224726.1043    -9942.3457           104.42%
      0     0     7792.2506     1   224726.1043     7792.2506     8060   96.53%
*     0+    0                         9396.9791     7792.2506            17.08%
*     0+    0                         8358.3619     7792.2506             6.77%
*     0+    0                         8358.3619                           0.00%
      0     0        cutoff           8358.3619                   8980    0.00%
Elapsed time = 2.12 sec. (2201.17 ticks, tree = 0.01 MB, solutions = 3)

Root node processing (before b&c):
  Real time             =    2.12 sec. (2203.84 ticks)
Parallel b&c, 16 threads:
  Real time             =    0.00 sec. (0.00 ticks)
  Sync time (average)   =    0.00 sec.
  Wait time (average)   =    0.00 sec.
                          ------------
Total (root+branch&cut) =    2.12 sec. (2203.84 ticks)

Solution pool: 3 solutions saved.

MIP - Integer optimal solution:  Objective =  8.3583618728e+03
Solution time =    2.12 sec.  Iterations = 8980  Nodes = 0
Deterministic time = 2204.00 ticks  (1037.18 ticks/sec)

CPLEX> Incumbent solution written to file 'C:\Users\wangy\Documents\GitHub\re_optimization\result_site_specific\tmpgmglnp10.cplex.sol'.
CPLEX> 
